0 0 0 0
0 1 0 0
0 2 0 0
0 3 0 7
0 4 0 34
0 5 0 41
0 6 0 9
0 7 0 18
0 8 0 16
0 9 0 13
0 10 0 41
0 11 0 24
0 12 0 43
0 13 0 64
0 14 0 84
0 15 0 133
0 16 0 81
0 17 0 25
0 18 0 24
0 19 0 30
0 20 0 91
0 21 0 18
0 22 0 91
0 23 0 9
0 24 0 15
0 25 0 31
0 26 0 7
0 27 0 25
0 28 0 51
0 29 0 48
0 30 0 68
0 31 0 100
0 32 0 22
0 33 0 108
0 34 0 102
0 35 0 18
0 36 0 16
0 37 0 51
0 38 0 55
0 39 0 77
0 40 0 73
0 41 0 34
0 42 0 49
0 43 0 34
0 44 0 179
0 45 0 153
0 46 0 97
0 47 0 31
0 48 0 109
0 49 0 64
0 50 0 80
0 51 0 161
0 52 0 128
0 53 0 97
0 54 0 77
0 55 0 73
0 56 0 58
0 57 0 73
0 58 0 136
0 59 0 123
0 60 0 58
0 61 0 117
0 62 0 43
0 63 0 111
0 64 0 125
0 65 0 49
0 66 0 122
0 67 0 133
0 68 0 129
0 69 0 68
0 70 0 102
0 71 0 149
0 72 0 156
0 73 0 84
0 74 0 161
0 75 0 115
0 76 0 169
0 77 0 130
0 78 0 142
0 79 0 115
0 80 0 195
0 81 0 81
0 82 0 68
0 83 0 107
0 84 0 143
0 85 0 105
0 86 0 74
0 87 0 161
0 88 0 130
0 89 0 150
0 90 0 81
0 91 0 55
0 92 0 149
0 93 0 183
0 94 0 145
0 95 0 145
0 96 0 100
0 97 0 128
0 98 0 125
0 99 0 167
0 100 0 91
0 101 0 170
0 102 0 153
0 103 0 109
0 104 0 170
0 105 0 179
0 106 0 180
0 107 0 160
0 108 0 174
0 109 0 166
0 110 0 185
0 111 0 145
0 112 0 174
0 113 0 176
0 114 0 190
0 115 0 184
0 116 0 195
0 117 0 203
0 118 0 201
0 119 0 192
0 120 0 205
0 121 0 210
